# Objective value = 15
WA1n 0
WA1p 0
WA2n 1
WA2p 0
WB1n 0
WB1p 0
WB2n 1
WB2p 0
WC1n 1
WC1p 0
WD1n 1
WD1p 0
WE1n 2
WE1p 0
WF1n 2
WF1p 0
WT1n 3
WT1p 0
WT2n 1
WT2p 0
100 103
a 1
b 1
c 1
d 1
e 1
f 1
g 1
h 1
i 1
j 1
